NAME : 10_3_3_2_(21).dat
COMMENT : Henke, Speranza, Wäscher, 2015
TYPE : MCVRP
DIMENSION : 11
EDGE_WEIGHT_TYPE : DISTANCE_MATRIX
CAPACITY : 1000
VEHICLES : 2
PRODUCT TYPES : 3
COMPARTMENTS : 3
NODE_COORD_SECTION
1 50 50
2 82.39 45.07
3 20.77 70.6
4 17.55 86.62
5 48.02 26.61
6 0.52 36.34
7 11.29 16.51
8 30.14 38.85
9 64.54 89.42
10 78.99 54.29
11 37.77 21.94
DEMAND_SECTION
1 0 0 0
2 78 85 0
3 84 137 0
4 34 0 84
5 125 115 0
6 0 3 73
7 0 93 17
8 125 9 0
9 160 0 55
10 28 0 59
11 101 0 7
DEPOT_SECTION
1
EOF